P-n23-k8
40
113
1 2 2 1
2 2 2 2
3 2 1 4
4 2 1 5
5 2 1 6
6 3 5 1
7 3 5 2
8 3 3 3
9 3 6 4
10 3 4 5
11 3 7 6
12 4 2 1
13 4 5 2
14 4 3 4
15 4 1 5
16 4 5 6
17 5 4 1
18 5 4 2
19 5 3 3
20 5 5 4
21 5 4 5
22 5 3 6
23 6 1 1
24 6 2 2
25 6 2 3
26 6 2 4
27 6 2 5
28 6 2 6
29 7 3 1
30 7 4 2
31 7 2 3
32 7 3 4
33 7 2 5
34 7 5 6
35 8 2 1
36 8 2 2
37 8 2 3
38 8 2 4
39 8 3 5
40 8 4 6
41 9 5 1
42 9 5 2
43 9 5 3
44 9 5 4
45 9 4 5
46 9 4 6
47 10 2 1
48 10 1 2
49 10 1 3
50 10 4 6
51 11 1 2
52 11 1 3
53 11 3 4
54 11 1 5
55 11 2 6
56 12 1 2
57 12 1 3
58 12 2 5
59 12 3 6
60 13 4 1
61 13 3 2
62 13 1 3
63 13 2 4
64 13 1 5
65 13 3 6
66 14 1 1
67 14 1 2
68 14 1 3
69 14 2 4
70 14 1 6
71 15 3 1
72 15 5 2
73 15 2 3
74 15 2 4
75 15 2 5
76 15 5 6
77 16 2 2
78 16 3 3
79 16 1 4
80 16 1 5
81 16 4 6
82 17 3 1
83 17 3 2
84 17 1 3
85 17 1 4
86 17 2 5
87 17 2 6
88 18 3 1
89 18 6 2
90 18 4 3
91 18 4 4
92 18 2 5
93 18 7 6
94 19 2 1
95 19 4 2
96 19 2 3
97 19 2 4
98 19 2 5
99 19 5 6
100 20 2 1
101 20 1 2
102 20 1 4
103 20 2 6
104 21 3 1
105 21 3 2
106 21 2 3
107 21 2 4
108 21 1 5
109 21 4 6
110 22 1 2
111 22 1 4
112 22 1 5
113 22 2 6
